
Welcome to IBM(R) ILOG(R) CPLEX(R) Interactive Optimizer 22.1.1.0
  with Simplex, Mixed Integer & Barrier Optimizers
5725-A06 5725-A29 5724-Y48 5724-Y49 5724-Y54 5724-Y55 5655-Y21
Copyright IBM Corp. 1988, 2022.  All Rights Reserved.

Type 'help' for a list of available commands.
Type 'help' followed by a command name for more
information on commands.

CPLEX> Selected objective sense:  MINIMIZE
Selected objective  name:  00000000
Selected RHS        name:  RHS1
Selected bound      name:  BOUND
Problem 'ee.mps' read.
Read time = 0.03 sec. (3.17 ticks)
CPLEX> New value for time limit in seconds: 7200
CPLEX> New value for parallel optimization mode: -1
CPLEX> New value for default parallel thread count: 40
CPLEX> New value for mixed integer optimality gap tolerance: 1e-13
CPLEX> Version identifier: 22.1.1.0 | 2022-11-28 | 9160aff4d
CPXPARAM_Threads                                 40
CPXPARAM_Parallel                                -1
CPXPARAM_TimeLimit                               7200
CPXPARAM_MIP_Tolerances_MIPGap                   1e-13
Found incumbent of value 0.000000 after 0.00 sec. (0.31 ticks)
Tried aggregator 2 times.
MIP Presolve eliminated 183 rows and 2745 columns.
MIP Presolve modified 6090 coefficients.
Aggregator did 713 substitutions.
Reduced MIP has 3636 rows, 7840 columns, and 28954 nonzeros.
Reduced MIP has 7840 binaries, 0 generals, 0 SOSs, and 0 indicators.
Presolve time = 0.07 sec. (69.13 ticks)
Probing time = 0.03 sec. (5.33 ticks)
Tried aggregator 1 time.
Detecting symmetries...
Reduced MIP has 3636 rows, 7840 columns, and 28954 nonzeros.
Reduced MIP has 7840 binaries, 0 generals, 0 SOSs, and 0 indicators.
Presolve time = 0.02 sec. (22.09 ticks)
Probing time = 0.02 sec. (5.12 ticks)
Clique table members: 18788.
MIP emphasis: balance optimality and feasibility.
MIP search method: dynamic search.
Parallel mode: opportunistic, using up to 40 threads.
Root relaxation solution time = 0.09 sec. (79.50 ticks)

        Nodes                                         Cuts/
   Node  Left     Objective  IInf  Best Integer    Best Bound    ItCnt     Gap

*     0+    0                            0.0000  -1.54000e+13              --- 
*     0+    0                      -4.79000e+12  -1.54000e+13           221.50%
*     0+    0                      -6.00000e+12  -1.54000e+13           156.67%
      0     0  -1.53900e+13    89  -6.00000e+12  -1.53900e+13     1686  156.50%
*     0+    0                      -7.20000e+12  -1.53900e+13           113.75%
*     0+    0                      -1.53900e+13  -1.53900e+13             0.00%
      0     0  -1.53900e+13   147  -1.53900e+13      Cuts: 43     1915    0.00%
*     0+    0                      -1.53900e+13  -1.53900e+13             0.00%
      0     0  -1.53900e+13   181  -1.53900e+13      Cuts: 84     2190    0.00%
*     0+    0                      -1.53900e+13  -1.53900e+13             0.00%
      0     2  -1.53900e+13   178  -1.53900e+13  -1.53900e+13     2190    0.00%
Elapsed time = 1.64 sec. (797.83 ticks, tree = 0.02 MB, solutions = 8)
    188    53        cutoff        -1.53900e+13  -1.53900e+13    26861    0.00%
    957   108  -1.53900e+13   268  -1.53900e+13  -1.53900e+13    44858    0.00%
   1748   101  -1.53900e+13   171  -1.53900e+13  -1.53900e+13    44042    0.00%
   2255   175  -1.53900e+13   109  -1.53900e+13  -1.53900e+13    72158    0.00%
   2680   208  -1.53900e+13   135  -1.53900e+13  -1.53900e+13    94331    0.00%
   2984   312  -1.53900e+13   140  -1.53900e+13  -1.53900e+13   122837    0.00%
   3289   514        cutoff        -1.53900e+13  -1.53900e+13   415487    0.00%
   3590   517    infeasible        -1.53900e+13  -1.53900e+13   356579    0.00%
   3945   515        cutoff        -1.53900e+13  -1.53900e+13   407165    0.00%
   5757   566  -1.53900e+13   111  -1.53900e+13  -1.53900e+13   449736    0.00%
Elapsed time = 7.54 sec. (3901.26 ticks, tree = 4.94 MB, solutions = 17)
   7641   495        cutoff        -1.53900e+13  -1.53900e+13   883803    0.00%
   8721   508        cutoff        -1.53900e+13  -1.53900e+13   869703    0.00%
   9884   389  -1.53900e+13    22  -1.53900e+13  -1.53900e+13   926357    0.00%
  10718    77  -1.53900e+13   174  -1.53900e+13  -1.53900e+13  1028472    0.00%
  10888    16        cutoff        -1.53900e+13  -1.53900e+13  1088893    0.00%

Clique cuts applied:  19
Cover cuts applied:  1264
Flow cuts applied:  1
Mixed integer rounding cuts applied:  1
Zero-half cuts applied:  5
Lift and project cuts applied:  17
Gomory fractional cuts applied:  17

Root node processing (before b&c):
  Real time             =    0.95 sec. (796.63 ticks)
Parallel b&c, 40 threads:
  Real time             =   10.51 sec. (7937.00 ticks)
  Sync time (average)   =    2.09 sec.
  Wait time (average)   =    0.00 sec.
                          ------------
Total (root+branch&cut) =   11.46 sec. (8733.62 ticks)

Solution pool: 17 solutions saved.

MIP - Integer optimal solution:  Objective = -1.5389998288e+13
Solution time =   11.60 sec.  Iterations = 1107761  Nodes = 10890
Deterministic time = 8733.66 ticks  (752.90 ticks/sec)

CPLEX> Solution 'p18' written to file 'ee.sol'.
CPLEX> 